g3 1 1 0	# problem unknown
 31 21 1 0 21 	# vars, constraints, objectives, ranges, eqns
 21 1 0 0 0 0	# nonlinear constrs, objs; ccons: lin, nonlin, nd, nzlb
 0 0	# network constraints: nonlinear, linear
 7 8 0 	# nonlinear vars in constraints, objectives, both
 0 0 0 1	# linear network variables; functions; arith, flags
 0 0 0 0 0 	# discrete variables: binary, integer, nonlinear (b,c,o)
 70 1 	# nonzeros in Jacobian, obj. gradient
 0 0	# max name lengths: constraints, variables
 0 0 0 0 0	# common exprs: b,c,o,c1,o1
C0
o2
n1250.0
o46
v0
C1
o2
n15625.0
o41
v0
C2
o2
n1250.0
o41
v0
C3
o2
n1250.0
o46
v1
C4
o2
n15625.0
o41
v1
C5
o2
n1250.0
o41
v1
C6
o2
n3750.0
o46
v2
C7
o2
n93750.0
o41
v2
C8
o2
n3750.0
o41
v2
C9
o2
n3750.0
o46
v3
C10
o2
n93750.0
o41
v3
C11
o2
n3750.0
o41
v3
C12
o2
n3750.0
o46
v4
C13
o2
n93750.0
o41
v4
C14
o2
n3750.0
o41
v4
C15
o2
n9000.0
o46
v5
C16
o2
n405000.0
o41
v5
C17
o2
n9000.0
o41
v5
C18
o2
n9000.0
o46
v6
C19
o2
n405000.0
o41
v6
C20
o2
n9000.0
o41
v6
O0 0
o2
o2
n-1
v7
v7
x7
0 0.5
1 0.5
2 0.5
3 0.5
4 0.5
5 0.5
6 0.5
r
4 0.0
4 10000.0
4 800.0
4 0.0
4 10000.0
4 800.0
4 0.0
4 40000.0
4 1600.0
4 0.0
4 40000.0
4 1600.0
4 0.0
4 40000.0
4 1600.0
4 0.0
4 129600.0
4 2880.0
4 0.0
4 100000.0
4 1000.0
b
0 0.0 1.58
0 0.0 1.58
0 0.0 1.58
0 0.0 1.58
0 0.0 1.58
0 0.0 1.58
0 0.0 1.58
3
4 0.0
4 0.0
4 0.0
3
3
3
3
3
3
3
3
3
3
3
3
3
3
3
3
3
3
3
3
k30
3
6
9
12
15
18
21
22
23
24
26
28
30
33
35
37
40
42
44
47
49
51
54
56
58
61
63
65
68
69
J0 3
8 1
11 -1
0 0
J1 4
9 1
10 25.0
12 -1
0 0
J2 3
10 1
13 -1
0 0
J3 3
11 1
14 -1
1 0
J4 4
12 1
13 25.0
15 -1
1 0
J5 3
13 1
16 -1
1 0
J6 3
14 1
17 -1
2 0
J7 4
15 1
16 50.0
18 -1
2 0
J8 3
16 1
19 -1
2 0
J9 3
17 1
20 -1
3 0
J10 4
18 1
19 50.0
21 -1
3 0
J11 3
19 1
22 -1
3 0
J12 3
20 1
23 -1
4 0
J13 4
21 1
22 50.0
24 -1
4 0
J14 3
22 1
25 -1
4 0
J15 3
23 1
26 -1
5 0
J16 4
24 1
25 90.0
27 -1
5 0
J17 3
25 1
28 -1
5 0
J18 3
26 1
7 -1
6 0
J19 4
27 1
28 90.0
29 -1
6 0
J20 3
28 1
30 -1
6 0
G0 1
7 0
